50 11427

329
302
351
342
89
247
478
472
219
58
283
209
62
249
240
440
77
195
239
298
435
465
445
279
111
95
359
352
272
46
466
73
373
322
63
420
421
321
464
381
425
281
426
260
464
128
215
330
118
295
